data;

### SETS ###

set NODES :=
source_1
source_3
source_2
sink_5
sink_8
sink_22
sink_4
sink_18
sink_23
sink_3
sink_10
sink_12
sink_7
sink_14
sink_21
sink_20
sink_9
sink_24
sink_27
sink_19
sink_17
sink_6
sink_15
sink_29
sink_26
sink_25
sink_28
sink_16
sink_11
sink_2
sink_1
sink_13
innode_1
innode_4
innode_2
innode_3
innode_8
innode_5
innode_6
innode_7
;

set SOURCES :=
source_1
source_3
source_2
;

set SINKS :=
sink_5
sink_8
sink_22
sink_4
sink_18
sink_23
sink_3
sink_10
sink_12
sink_7
sink_14
sink_21
sink_20
sink_9
sink_24
sink_27
sink_19
sink_17
sink_6
sink_15
sink_29
sink_26
sink_25
sink_28
sink_16
sink_11
sink_2
sink_1
sink_13
;

set NAMES :=
pipe_6
pipe_34
pipe_29
pipe_35
pipe_13
pipe_5
pipe_18
pipe_22
pipe_23
pipe_38
pipe_9
pipe_32
pipe_16
pipe_25
pipe_30
pipe_11
pipe_31
pipe_3
pipe_33
pipe_19
pipe_21
pipe_39
pipe_2
pipe_20
pipe_7
pipe_1
pipe_10
pipe_27
pipe_15
pipe_37
pipe_8
pipe_12
pipe_4
pipe_28
pipe_26
pipe_24
pipe_14
pipe_36
pipe_17
compressorStation_5
compressorStation_1
compressorStation_2
compressorStation_3
compressorStation_6
compressorStation_4
;

set ARCS :=
(sink_25, sink_26, pipe_6)
(innode_4, innode_5, pipe_34)
(sink_29, sink_2, pipe_29)
(sink_27, innode_5, pipe_35)
(sink_6, sink_7, pipe_13)
(sink_14, sink_10, pipe_5)
(sink_21, sink_12, pipe_18)
(sink_17, sink_8, pipe_22)
(sink_3, sink_23, pipe_23)
(sink_10, innode_2, pipe_38)
(sink_26, sink_4, pipe_9)
(innode_4, sink_19, pipe_32)
(sink_22, sink_1, pipe_16)
(sink_25, sink_20, pipe_25)
(sink_2, sink_15, pipe_30)
(sink_18, sink_6, pipe_11)
(sink_29, innode_7, pipe_31)
(innode_6, sink_13, pipe_3)
(sink_19, innode_3, pipe_33)
(sink_7, sink_5, pipe_19)
(sink_17, sink_4, pipe_21)
(sink_10, innode_3, pipe_39)
(innode_1, sink_16, pipe_2)
(sink_5, sink_17, pipe_20)
(sink_26, sink_9, pipe_7)
(source_1, sink_3, pipe_1)
(sink_4, sink_20, pipe_10)
(sink_15, sink_29, pipe_27)
(sink_7, sink_24, pipe_15)
(sink_10, sink_11, pipe_37)
(sink_9, sink_18, pipe_8)
(sink_25, innode_8, pipe_12)
(sink_13, sink_14, pipe_4)
(sink_29, sink_28, pipe_28)
(sink_25, sink_15, pipe_26)
(sink_8, sink_20, pipe_24)
(sink_6, sink_22, pipe_14)
(sink_27, sink_19, pipe_36)
(sink_24, sink_21, pipe_17)
(source_2, innode_7, compressorStation_5)
(innode_6, sink_25, compressorStation_1)
(sink_11, innode_1, compressorStation_2)
(sink_19, innode_2, compressorStation_3)
(sink_3, innode_8, compressorStation_6)
(source_3, innode_4, compressorStation_4)
;

set PIPES :=
(sink_25, sink_26, pipe_6)
(innode_4, innode_5, pipe_34)
(sink_29, sink_2, pipe_29)
(sink_27, innode_5, pipe_35)
(sink_6, sink_7, pipe_13)
(sink_14, sink_10, pipe_5)
(sink_21, sink_12, pipe_18)
(sink_17, sink_8, pipe_22)
(sink_3, sink_23, pipe_23)
(sink_10, innode_2, pipe_38)
(sink_26, sink_4, pipe_9)
(innode_4, sink_19, pipe_32)
(sink_22, sink_1, pipe_16)
(sink_25, sink_20, pipe_25)
(sink_2, sink_15, pipe_30)
(sink_18, sink_6, pipe_11)
(sink_29, innode_7, pipe_31)
(innode_6, sink_13, pipe_3)
(sink_19, innode_3, pipe_33)
(sink_7, sink_5, pipe_19)
(sink_17, sink_4, pipe_21)
(sink_10, innode_3, pipe_39)
(innode_1, sink_16, pipe_2)
(sink_5, sink_17, pipe_20)
(sink_26, sink_9, pipe_7)
(source_1, sink_3, pipe_1)
(sink_4, sink_20, pipe_10)
(sink_15, sink_29, pipe_27)
(sink_7, sink_24, pipe_15)
(sink_10, sink_11, pipe_37)
(sink_9, sink_18, pipe_8)
(sink_25, innode_8, pipe_12)
(sink_13, sink_14, pipe_4)
(sink_29, sink_28, pipe_28)
(sink_25, sink_15, pipe_26)
(sink_8, sink_20, pipe_24)
(sink_6, sink_22, pipe_14)
(sink_27, sink_19, pipe_36)
(sink_24, sink_21, pipe_17)
;

set  COMPRESSORS:=
(source_2, innode_7, compressorStation_5)
(innode_6, sink_25, compressorStation_1)
(sink_11, innode_1, compressorStation_2)
(sink_19, innode_2, compressorStation_3)
(sink_3, innode_8, compressorStation_6)
(source_3, innode_4, compressorStation_4)
;

set  CONTROLVALVES:=
;

set  VALVES:=
;

set  SHORTPIPES:=
;

set  RESISTORS:=
;

### PARAMS ###


# for NODES
param: FlowInOut PressureLower PressureUpper :=
source_1 201.38888888888889 1.01325 81.01325
source_3 201.38888888888889 1.01325 81.01325
source_2 201.38888888888889 1.01325 81.01325
sink_5 -20.833333333333336 1.01325 81.01325
sink_8 -20.833333333333336 1.01325 81.01325
sink_22 -20.833333333333336 1.01325 81.01325
sink_4 -20.833333333333336 1.01325 81.01325
sink_18 -20.833333333333336 1.01325 81.01325
sink_23 -20.833333333333336 1.01325 81.01325
sink_3 -20.833333333333336 1.01325 81.01325
sink_10 -20.833333333333336 1.01325 81.01325
sink_12 -20.833333333333336 1.01325 81.01325
sink_7 -20.833333333333336 1.01325 81.01325
sink_14 -20.833333333333336 1.01325 81.01325
sink_21 -20.833333333333336 1.01325 81.01325
sink_20 -20.833333333333336 1.01325 81.01325
sink_9 -20.833333333333336 1.01325 81.01325
sink_24 -20.833333333333336 1.01325 81.01325
sink_27 -20.833333333333336 1.01325 81.01325
sink_19 -20.833333333333336 1.01325 81.01325
sink_17 -20.833333333333336 1.01325 81.01325
sink_6 -20.833333333333336 1.01325 81.01325
sink_15 -20.833333333333336 1.01325 81.01325
sink_29 -20.833333333333336 1.01325 81.01325
sink_26 -20.833333333333336 1.01325 81.01325
sink_25 -20.833333333333336 1.01325 81.01325
sink_28 -20.833333333333336 1.01325 81.01325
sink_16 -20.833333333333336 1.01325 81.01325
sink_11 -20.833333333333336 1.01325 81.01325
sink_2 -20.833333333333336 1.01325 81.01325
sink_1 -20.833333333333336 1.01325 81.01325
sink_13 -20.833333333333336 1.01325 81.01325
innode_1 0 1.01325 81.01325
innode_4 0 1.01325 81.01325
innode_2 0 1.01325 81.01325
innode_3 0 1.01325 81.01325
innode_8 0 1.01325 81.01325
innode_5 0 1.01325 81.01325
innode_6 0 1.01325 81.01325
innode_7 0 1.01325 81.01325
;

# for Mean molar mass
param AvgMolarMass =
0.018567399999999998
;
param AvgGasTemp =
273.15
;
param AvgPressure =
41.01325
;
param AvgPseudoPressure =
45.9293457336
;
param AvgPseudoTemp =
188.54975891099997
;

# for SOURCES
param: CalorificValue GasTemperature MolarMass:=
source_1 35.66709669344494 0.0 18.5674
source_3 39.746907776550316 0.0 18.5674
source_2 39.562306747580955 0.0 18.5674
;

# for SINKS
param: FlowLowerNode FlowUpperNode :=
sink_5 -2777.777777777778 0
sink_8 -2777.777777777778 0
sink_22 -2777.777777777778 0
sink_4 -2777.777777777778 0
sink_18 -2777.777777777778 0
sink_23 -2777.777777777778 0
sink_3 -2777.777777777778 0
sink_10 -2777.777777777778 0
sink_12 -2777.777777777778 0
sink_7 -2777.777777777778 0
sink_14 -2777.777777777778 0
sink_21 -2777.777777777778 0
sink_20 -2777.777777777778 0
sink_9 -2777.777777777778 0
sink_24 -2777.777777777778 0
sink_27 -2777.777777777778 0
sink_19 -2777.777777777778 0
sink_17 -2777.777777777778 0
sink_6 -2777.777777777778 0
sink_15 -2777.777777777778 0
sink_29 -2777.777777777778 0
sink_26 -2777.777777777778 0
sink_25 -2777.777777777778 0
sink_28 -2777.777777777778 0
sink_16 -2777.777777777778 0
sink_11 -2777.777777777778 0
sink_2 -2777.777777777778 0
sink_1 -2777.777777777778 0
sink_13 -2777.777777777778 0
;

# for ARCS
param: FlowLowerArc FlowUpperArc :=
sink_25 sink_26 pipe_6 -2777.777777777778 2777.777777777778
innode_4 innode_5 pipe_34 -2777.777777777778 2777.777777777778
sink_29 sink_2 pipe_29 -2777.777777777778 2777.777777777778
sink_27 innode_5 pipe_35 -2777.777777777778 2777.777777777778
sink_6 sink_7 pipe_13 -2777.777777777778 2777.777777777778
sink_14 sink_10 pipe_5 -2777.777777777778 2777.777777777778
sink_21 sink_12 pipe_18 -2777.777777777778 2777.777777777778
sink_17 sink_8 pipe_22 -2777.777777777778 2777.777777777778
sink_3 sink_23 pipe_23 -2777.777777777778 2777.777777777778
sink_10 innode_2 pipe_38 -2777.777777777778 2777.777777777778
sink_26 sink_4 pipe_9 -2777.777777777778 2777.777777777778
innode_4 sink_19 pipe_32 -2777.777777777778 2777.777777777778
sink_22 sink_1 pipe_16 -2777.777777777778 2777.777777777778
sink_25 sink_20 pipe_25 -2777.777777777778 2777.777777777778
sink_2 sink_15 pipe_30 -2777.777777777778 2777.777777777778
sink_18 sink_6 pipe_11 -2777.777777777778 2777.777777777778
sink_29 innode_7 pipe_31 -2777.777777777778 2777.777777777778
innode_6 sink_13 pipe_3 -2777.777777777778 2777.777777777778
sink_19 innode_3 pipe_33 -2777.777777777778 2777.777777777778
sink_7 sink_5 pipe_19 -2777.777777777778 2777.777777777778
sink_17 sink_4 pipe_21 -2777.777777777778 2777.777777777778
sink_10 innode_3 pipe_39 -2777.777777777778 2777.777777777778
innode_1 sink_16 pipe_2 -2777.777777777778 2777.777777777778
sink_5 sink_17 pipe_20 -2777.777777777778 2777.777777777778
sink_26 sink_9 pipe_7 -2777.777777777778 2777.777777777778
source_1 sink_3 pipe_1 -2777.777777777778 2777.777777777778
sink_4 sink_20 pipe_10 -2777.777777777778 2777.777777777778
sink_15 sink_29 pipe_27 -2777.777777777778 2777.777777777778
sink_7 sink_24 pipe_15 -2777.777777777778 2777.777777777778
sink_10 sink_11 pipe_37 -2777.777777777778 2777.777777777778
sink_9 sink_18 pipe_8 -2777.777777777778 2777.777777777778
sink_25 innode_8 pipe_12 -2777.777777777778 2777.777777777778
sink_13 sink_14 pipe_4 -2777.777777777778 2777.777777777778
sink_29 sink_28 pipe_28 -2777.777777777778 2777.777777777778
sink_25 sink_15 pipe_26 -2777.777777777778 2777.777777777778
sink_8 sink_20 pipe_24 -2777.777777777778 2777.777777777778
sink_6 sink_22 pipe_14 -2777.777777777778 2777.777777777778
sink_27 sink_19 pipe_36 -2777.777777777778 2777.777777777778
sink_24 sink_21 pipe_17 -2777.777777777778 2777.777777777778
source_2 innode_7 compressorStation_5 -2777.777777777778 2777.777777777778
innode_6 sink_25 compressorStation_1 -2777.777777777778 2777.777777777778
sink_11 innode_1 compressorStation_2 -2777.777777777778 2777.777777777778
sink_19 innode_2 compressorStation_3 -2777.777777777778 2777.777777777778
sink_3 innode_8 compressorStation_6 -2777.777777777778 2777.777777777778
source_3 innode_4 compressorStation_4 -2777.777777777778 2777.777777777778
;

# for PIPES
param: Roughness Diameter Length e d :=
sink_25 sink_26 pipe_6 5e-05 0.8 86690.2655668 0.277412957652042 0.277412957652042
innode_4 innode_5 pipe_34 1.2e-05 1.0 3418.00825125 1.71012881953076 1.71012881953076
sink_29 sink_2 pipe_29 5e-05 0.8 31179.6191038 0.277412957652042 0.277412957652042
sink_27 innode_5 pipe_35 5e-05 1.0 32449.372045300002 0.376714833424634 0.376714833424634
sink_6 sink_7 pipe_13 5e-05 0.6 3802.5866770499997 0.186022360858266 0.186022360858266
sink_14 sink_10 pipe_5 5e-05 0.8 58218.9695531 0.277412957652042 0.277412957652042
sink_21 sink_12 pipe_18 5e-05 0.4 12015.8748344 0.104954828125812 0.104954828125812
sink_17 sink_8 pipe_22 5e-05 0.6 10452.031178000001 0.186022360858266 0.186022360858266
sink_3 sink_23 pipe_23 5e-05 0.8 12397.3521636 0.277412957652042 0.277412957652042
sink_10 innode_2 pipe_38 5e-05 0.8 65057.174267899994 0.277412957652042 0.277412957652042
sink_26 sink_4 pipe_9 5e-05 0.6 35218.8390867 0.186022360858266 0.186022360858266
innode_4 sink_19 pipe_32 5e-05 0.8 49866.1483875 0.277412957652042 0.277412957652042
sink_22 sink_1 pipe_16 5e-05 0.6 18017.8496012 0.186022360858266 0.186022360858266
sink_25 sink_20 pipe_25 5e-05 0.6 66036.5946309 0.186022360858266 0.186022360858266
sink_2 sink_15 pipe_30 5e-05 1.0 12766.7034136 0.376714833424634 0.376714833424634
sink_18 sink_6 pipe_11 5e-05 0.8 32868.2025259 0.277412957652042 0.277412957652042
sink_29 innode_7 pipe_31 5e-05 0.8 32921.259815 0.277412957652042 0.277412957652042
innode_6 sink_13 pipe_3 5e-05 1.0 21557.5661917 0.376714833424634 0.376714833424634
sink_19 innode_3 pipe_33 1.2e-05 0.8 3479.45466552 1.25829451182191 1.25829451182191
sink_7 sink_5 pipe_19 5e-05 0.4 14043.1135378 0.104954828125812 0.104954828125812
sink_17 sink_4 pipe_21 5e-05 0.6 10586.1294733 0.186022360858266 0.186022360858266
sink_10 innode_3 pipe_39 5e-05 0.8 65532.2127112 0.277412957652042 0.277412957652042
innode_1 sink_16 pipe_2 5e-05 0.8 76893.5507568 0.277412957652042 0.277412957652042
sink_5 sink_17 pipe_20 5e-05 0.6 20634.698268800003 0.186022360858266 0.186022360858266
sink_26 sink_9 pipe_7 5e-05 0.6 16579.3259985 0.186022360858266 0.186022360858266
source_1 sink_3 pipe_1 5e-05 1.0 13071.0852297 0.376714833424634 0.376714833424634
sink_4 sink_20 pipe_10 5e-05 0.6 20322.2054259 0.186022360858266 0.186022360858266
sink_15 sink_29 pipe_27 5e-05 0.8 36061.0098747 0.277412957652042 0.277412957652042
sink_7 sink_24 pipe_15 5e-05 0.4 38659.824363 0.104954828125812 0.104954828125812
sink_10 sink_11 pipe_37 5e-05 1.0 18136.5972918 0.376714833424634 0.376714833424634
sink_9 sink_18 pipe_8 5e-05 0.6 10022.7829812 0.186022360858266 0.186022360858266
sink_25 innode_8 pipe_12 5e-05 0.8 47488.2838523 0.277412957652042 0.277412957652042
sink_13 sink_14 pipe_4 5e-05 1.0 6998.05377872 0.376714833424634 0.376714833424634
sink_29 sink_28 pipe_28 5e-05 0.8 22224.1532472 0.277412957652042 0.277412957652042
sink_25 sink_15 pipe_26 5e-05 1.0 18969.412711099998 0.376714833424634 0.376714833424634
sink_8 sink_20 pipe_24 5e-05 0.6 19303.1920196 0.186022360858266 0.186022360858266
sink_6 sink_22 pipe_14 5e-05 0.8 39036.0418114 0.277412957652042 0.277412957652042
sink_27 sink_19 pipe_36 5e-05 0.8 26427.4816453 0.277412957652042 0.277412957652042
sink_24 sink_21 pipe_17 5e-05 0.6 3067.54743994 0.186022360858266 0.186022360858266
;

# for COMPRESSORSTATIONS & CONTROLVAVES
param:  PressureChangeUpper PressureChangeLower :=
source_2 innode_7 compressorStation_5 40.0 0
innode_6 sink_25 compressorStation_1 40.0 0
sink_11 innode_1 compressorStation_2 40.0 0
sink_19 innode_2 compressorStation_3 40.0 0
sink_3 innode_8 compressorStation_6 40.0 0
source_3 innode_4 compressorStation_4 40.0 0
;